! B97-3c opt noautostart miniprint nopop
%maxcore  1000
%pal nprocs   8 end
* xyz  -1   1
C     10.29000000   43.78500000   33.82300000
O     11.41600000   43.61800000   34.37600000
O      9.38000000   42.73400000   33.75000000
P      9.89200000   41.21000000   34.29800000
O     10.37100000   41.42700000   35.90000000
C      9.95100000   45.08200000   33.18600000
N     11.01500000   46.05300000   33.46300000
C      9.75200000   44.85900000   31.66800000
C      8.79900000   45.85900000   31.07400000
C      7.41600000   45.61900000   31.10200000
C      9.28500000   47.00700000   30.43500000
C      6.53400000   46.51800000   30.49500000
C      8.40200000   47.90800000   29.83400000
C      7.01500000   47.66900000   29.86200000
O      6.08400000   48.54000000   29.27400000
C      6.38600000   49.82400000   28.72500000
C      6.77900000   50.79900000   29.81200000
C      5.98300000   51.00100000   30.97200000
C      7.99500000   51.49600000   29.68400000
N      4.71900000   50.33800000   31.15000000
C      6.45200000   51.86100000   31.98300000
C      8.43300000   52.35600000   30.69200000
O      3.84500000   50.19800000   30.09700000
O      4.33200000   50.02500000   32.29600000
C      7.66600000   52.53400000   31.84100000
O      8.79100000   40.18000000   34.20400000
O     11.25100000   40.76600000   33.37800000
C     10.92700000   40.67100000   32.00700000
C     11.52400000   39.36700000   31.44600000
O     12.76400000   39.08100000   32.05700000
C     10.61000000   38.17900000   31.68500000
C     12.93400000   37.67500000   32.03200000
O      9.65400000   38.07400000   30.65800000
C     11.57800000   37.01100000   31.72500000
N     13.47300000   37.21400000   33.32400000
O     11.61900000   36.35400000   30.48200000
C     14.46600000   36.33900000   33.56600000
C     13.09700000   37.61700000   34.56700000
N     15.19100000   35.62700000   32.66700000
C     14.66200000   36.22800000   34.90400000
N     13.81000000   37.03000000   35.57000000
C     16.15100000   34.77300000   33.14200000
C     15.63900000   35.36000000   35.39900000
N     16.36700000   34.64500000   34.49100000
N     15.88500000   35.20600000   36.79900000
H      9.00600000   45.43800000   33.65300000
H     10.71600000   46.98700000   33.11000000
H     11.88500000   45.78600000   32.94500000
H     10.73000000   44.89300000   31.14100000
H      9.34500000   43.84400000   31.46000000
H      7.02200000   44.73100000   31.58200000
H     10.35000000   47.20000000   30.39700000
H      5.47000000   46.31800000   30.51800000
H      8.81200000   48.77600000   29.34000000
H      7.17300000   49.72300000   27.94700000
H      5.48700000   50.21200000   28.20400000
H      8.61500000   51.36400000   28.80700000
H      5.86500000   52.02400000   32.87800000
H      9.37300000   52.88100000   30.58300000
H      8.01000000   53.19900000   32.62300000
H      9.83600000   40.70800000   31.77200000
H     11.39200000   41.53300000   31.48100000
H     11.69000000   39.49300000   30.35100000
H     10.10900000   38.27300000   32.67800000
H     13.66500000   37.43300000   31.22900000
H      9.00400000   37.38500000   30.95300000
H     11.27000000   36.29500000   32.52400000
H     12.12300000   35.51100000   30.62700000
H     12.31300000   38.34200000   34.74800000
H     16.74400000   34.19000000   32.45000000
H     15.33900000   35.74800000   37.50500000
H     16.62100000   34.54300000   37.13300000
 *
