! B97-3c opt noautostart miniprint nopop
%maxcore  1000
%pal nprocs   4 end
* xyz  -1   1
C     10.28600000   43.78500000   33.82300000
O     11.41700000   43.61700000   34.36400000
O      9.37800000   42.73300000   33.75000000
P      9.89100000   41.21000000   34.29900000
O     10.36900000   41.42800000   35.90100000
C      9.94200000   45.08800000   33.19400000
N     11.01500000   46.05000000   33.45800000
C      9.76100000   44.86600000   31.67700000
C      8.80400000   45.85900000   31.07500000
C      7.42000000   45.61700000   31.10600000
C      9.28600000   47.00700000   30.43200000
C      6.53500000   46.51300000   30.50000000
C      8.40000000   47.90700000   29.83300000
C      7.01400000   47.66300000   29.86100000
O      6.08600000   48.53100000   29.26600000
C      6.43200000   49.72900000   28.57900000
O      8.79100000   40.17900000   34.20500000
O     11.25100000   40.76500000   33.38000000
C     10.93000000   40.67600000   32.00800000
C     11.53400000   39.37900000   31.44100000
O     12.76600000   39.08200000   32.06300000
C     10.61500000   38.18400000   31.66400000
C     12.93100000   37.67400000   32.03300000
O      9.62000000   38.07200000   30.66900000
C     11.57700000   37.00900000   31.72200000
N     13.47100000   37.21100000   33.32400000
O     11.64300000   36.33000000   30.49100000
C     14.46500000   36.33700000   33.56600000
C     13.09600000   37.61600000   34.56700000
N     15.19100000   35.62600000   32.66700000
C     14.66300000   36.22700000   34.90400000
N     13.81100000   37.02900000   35.57000000
C     16.15100000   34.77200000   33.14200000
C     15.64000000   35.36000000   35.39900000
N     16.36800000   34.64500000   34.49100000
N     15.88500000   35.20600000   36.79900000
H      8.99200000   45.44500000   33.65400000
H     11.04100000   46.24200000   34.48700000
H     10.76600000   46.95600000   33.00700000
H      9.37000000   43.84700000   31.45700000
H     10.75000000   44.92000000   31.17100000
H      7.02900000   44.72900000   31.58900000
H     10.35000000   47.20300000   30.39400000
H      5.47100000   46.31100000   30.52200000
H      8.80400000   48.78300000   29.34600000
H      7.08300000   49.49600000   27.71000000
H      5.50600000   50.21500000   28.20800000
H      6.94900000   50.42900000   29.26900000
H     11.39200000   41.54400000   31.48900000
H      9.83900000   40.71100000   31.77200000
H     11.72000000   39.52300000   30.35200000
H     10.11600000   38.27200000   32.65500000
H     13.66300000   37.43300000   31.22900000
H     10.05800000   38.10200000   29.77800000
H     11.27900000   36.30400000   32.53500000
H     10.87800000   35.69800000   30.47200000
H     12.31300000   38.34000000   34.74800000
H     16.74500000   34.19100000   32.45000000
H     16.62100000   34.54400000   37.13300000
H     15.33900000   35.74800000   37.50500000
 *
