! B97-3c opt noautostart miniprint nopop
%maxcore  1000
%pal nprocs   8 end
* xyz  -1   1
C     10.28700000   43.78500000   33.82300000
O     11.41700000   43.61700000   34.36400000
O      9.37800000   42.73300000   33.75000000
P      9.89200000   41.20900000   34.29800000
O     10.36900000   41.42800000   35.90100000
C      9.94200000   45.08800000   33.19400000
N     11.01400000   46.05000000   33.45900000
C      9.76200000   44.86600000   31.67700000
C      8.80400000   45.85800000   31.07400000
C      7.42200000   45.61700000   31.10700000
C      9.28500000   47.00600000   30.43300000
C      6.53300000   46.51200000   30.50200000
C      8.39700000   47.90400000   29.83700000
C      7.01600000   47.66800000   29.85500000
O      6.18800000   48.61600000   29.22400000
C      4.77800000   48.53700000   28.97300000
C      3.94300000   48.57200000   30.27900000
C      4.42500000   47.36800000   28.03200000
C      2.69800000   47.67200000   30.21500000
C      2.92400000   47.35400000   27.68500000
C      2.00800000   47.78600000   28.85200000
O      8.79200000   40.17900000   34.20400000
O     11.25300000   40.76600000   33.38100000
C     10.93300000   40.67700000   32.00900000
C     11.52300000   39.37000000   31.44600000
O     12.76400000   39.08000000   32.05500000
C     10.60500000   38.18300000   31.68600000
C     12.92900000   37.67300000   32.03100000
O      9.65300000   38.06200000   30.65600000
C     11.57100000   37.01300000   31.72600000
N     13.47100000   37.21400000   33.32200000
O     11.62800000   36.35100000   30.48500000
C     14.46500000   36.33900000   33.56500000
C     13.09600000   37.61700000   34.56600000
N     15.19000000   35.62700000   32.66700000
C     14.66200000   36.22800000   34.90300000
N     13.81000000   37.03100000   35.56900000
C     16.15100000   34.77300000   33.14200000
C     15.63900000   35.36100000   35.39900000
N     16.36700000   34.64500000   34.49100000
N     15.88500000   35.20700000   36.79900000
H      8.99200000   45.44500000   33.65400000
H     10.76600000   46.95600000   33.00700000
H     11.04000000   46.24200000   34.48700000
H     10.75100000   44.92100000   31.17100000
H      9.37100000   43.84700000   31.45600000
H      7.03200000   44.73100000   31.59400000
H     10.34900000   47.20500000   30.39500000
H      5.48100000   46.28900000   30.55800000
H      8.78500000   48.78700000   29.34500000
H      4.51700000   49.46100000   28.40900000
H      4.55100000   48.28900000   31.16200000
H      3.61400000   49.61900000   30.46200000
H      4.69000000   46.39500000   28.49000000
H      5.01600000   47.45600000   27.09500000
H      1.98800000   47.96900000   31.01700000
H      2.98700000   46.61400000   30.39600000
H      2.74400000   48.02900000   26.82100000
H      2.64700000   46.32700000   27.36000000
H      1.69300000   48.84300000   28.70000000
H      1.08800000   47.16300000   28.85200000
H     11.40900000   41.53600000   31.48800000
H      9.84500000   40.73100000   31.77000000
H     11.68600000   39.49600000   30.35000000
H     10.10600000   38.26200000   32.68100000
H     13.65800000   37.42800000   31.22700000
H      8.90800000   38.67800000   30.88200000
H     11.28200000   36.29600000   32.53200000
H     10.86800000   35.71300000   30.46600000
H     12.31200000   38.34100000   34.74700000
H     16.74400000   34.19100000   32.45000000
H     15.33900000   35.74800000   37.50500000
H     16.62000000   34.54400000   37.13300000
 *
