! wB97M-V def2-TZVP def2/J RIJCOSX strongSCF noautostart miniprint nopop
%maxcore  1000
%pal nprocs   4 end
%cpcm
smd true
SMDsolvent "water"
end
* xyz   -1   1
C     10.11078840   43.39311201   33.24169019
O     11.05309190   43.39237360   34.00232362
O      9.51341795   42.32618846   32.71160115
P      9.81211177   40.68010501   33.16715413
O      9.63265380   40.52590769   34.62993446
C      9.42069868   44.68041633   32.78469688
N     10.20473106   45.82996250   33.21293727
C      9.19102885   44.70672856   31.26436192
C      8.37172997   45.88632572   30.84062775
C      6.98818886   45.79791868   30.74854794
C      8.95732437   47.12479340   30.57060294
C      6.20164985   46.89062505   30.40217168
C      8.19314183   48.22375167   30.22668288
C      6.80695877   48.11456690   30.13590685
O      6.13732901   49.25533181   29.77839102
C      4.72277702   49.19226181   29.66367097
C      4.22979772   50.55576760   29.25266878
O      9.01190409   39.96535362   32.10530706
O     11.42348153   40.55697902   32.82312750
C     11.80638629   40.40726950   31.45988014
C     12.12586448   38.97695668   31.09410352
O     13.44626108   38.61537069   31.54880383
C     11.20761061   37.91839838   31.70257183
C     13.46625616   37.25324659   31.91872897
O      9.99439200   37.74515179   31.02543960
C     12.07734054   36.67658940   31.63111341
N     13.83203046   37.15823412   33.33080332
O     12.06408026   36.12141069   30.32567573
C     14.60991845   36.17449577   33.89131724
C     13.46828003   38.00593845   34.36017477
N     15.21479049   35.14288307   33.29609596
C     14.66722818   36.48932174   35.25095066
N     13.95451327   37.63587573   35.52382556
C     15.91846357   34.41664023   34.16394684
C     15.43432992   35.63781143   36.05195742
N     16.06479877   34.59886168   35.48331181
N     15.53231038   35.80897343   37.39817534
H      8.42996529   44.64497867   33.25909602
H     10.77886871   45.54079668   33.99633084
H      9.59684055   46.57473209   33.52069539
H      8.70058364   43.78257479   30.97021347
H     10.16903374   44.73273939   30.78380946
H      6.50513419   44.84991400   30.95223438
H     10.03099880   47.22352228   30.65347652
H      5.13097792   46.76861302   30.33901327
H      8.65300179   49.17968928   30.01509470
H      4.44021916   48.43911391   28.92073044
H      4.28148640   48.89345855   30.62027692
H      3.14479839   50.54609852   29.15424599
H      4.65866468   50.85046620   28.29685585
H      4.50058060   51.30541348   29.99369233
H     12.68983168   41.02652783   31.29925150
H     11.01604249   40.75622822   30.79556107
H     12.09291181   38.88433778   30.00359047
H     11.03513864   38.16288372   32.75258096
H     14.22836612   36.70525636   31.36657443
H      9.44090293   38.51116193   31.33458388
H     11.80630776   35.92409734   32.37608160
H     11.18062341   36.31894959   29.98008739
H     12.86912177   38.88398724   34.18264856
H     16.44694925   33.56507219   33.75133304
H     16.30584030   35.34843326   37.84479406
H     15.27914959   36.71505485   37.75286653
 *
