! B97-3c opt noautostart miniprint nopop
%maxcore  1000
%pal nprocs   8 end
* xyz  -1   1
C     10.28600000   43.78500000   33.82300000
O     11.41700000   43.61700000   34.36400000
O      9.37800000   42.73300000   33.75000000
P      9.89100000   41.21000000   34.29900000
O     10.36800000   41.42900000   35.90200000
C      9.94200000   45.08800000   33.19400000
N     11.01500000   46.05000000   33.45800000
C      9.76100000   44.86700000   31.67700000
C      8.80400000   45.85900000   31.07500000
C      7.42000000   45.61600000   31.10700000
C      9.28600000   47.00700000   30.43200000
C      6.53300000   46.51100000   30.50100000
C      8.39800000   47.90500000   29.83400000
C      7.01900000   47.66700000   29.85900000
O      6.17100000   48.59500000   29.23600000
C      4.75200000   48.47700000   29.17700000
C      4.17600000   49.66300000   28.42000000
O      8.79200000   40.17900000   34.20500000
O     11.25200000   40.76700000   33.38200000
C     10.93200000   40.67900000   32.01100000
C     11.52400000   39.37400000   31.44800000
O     12.76700000   39.08400000   32.05700000
C     10.60700000   38.18400000   31.68500000
C     12.93700000   37.67800000   32.03000000
O      9.65100000   38.06300000   30.65800000
C     11.58000000   37.01800000   31.71400000
N     13.47200000   37.21500000   33.32300000
O     11.61800000   36.32400000   30.48700000
C     14.46500000   36.33900000   33.56600000
C     13.09600000   37.61800000   34.56600000
N     15.19100000   35.62700000   32.66700000
C     14.66100000   36.22800000   34.90400000
N     13.80900000   37.03100000   35.56900000
C     16.15100000   34.77300000   33.14300000
C     15.63900000   35.36100000   35.40000000
N     16.36700000   34.64600000   34.49100000
N     15.88400000   35.20700000   36.79900000
H      8.99200000   45.44500000   33.65400000
H     11.04100000   46.24300000   34.48700000
H     10.76600000   46.95600000   33.00700000
H      9.37100000   43.84700000   31.45600000
H     10.75000000   44.92100000   31.17100000
H      7.03000000   44.72800000   31.58900000
H     10.34900000   47.20500000   30.39300000
H      5.47400000   46.29400000   30.53300000
H      8.78400000   48.78800000   29.34100000
H      4.47400000   47.53900000   28.65000000
H      4.33200000   48.46400000   30.20600000
H      3.07000000   49.57600000   28.37100000
H      4.58300000   49.68700000   27.38700000
H      4.44100000   50.60900000   28.93800000
H     11.40700000   41.53900000   31.49000000
H      9.84400000   40.73100000   31.77200000
H     11.68800000   39.50300000   30.35300000
H     10.11100000   38.25700000   32.68200000
H     13.67500000   37.43600000   31.23200000
H      8.90800000   38.67900000   30.88600000
H     11.28300000   36.30100000   32.51100000
H     11.87900000   36.96800000   29.77600000
H     12.31300000   38.34300000   34.74700000
H     16.74400000   34.19100000   32.45100000
H     16.62100000   34.54400000   37.13300000
H     15.33800000   35.74800000   37.50600000
 *
