! B97-3c opt noautostart miniprint nopop
%maxcore  1000
%pal nprocs   4 end
* xyz  -1   1
